orario = [21.30, 19.00, 21.30, 20.15, 19.00, 20.00, 21.00, 19.00, 21.30, 20.00, 19.00, 21.30, 19.15, 21.00, 19.30];
num_pizze = [2, 6, 5, 7, 3, 2, 6, 9, 5, 7, 8, 6, 8, 7, 8];
dest = [67, 42, 180, 121, 273, 260, 32, 139, 291, 212, 33, 32, 3, 9, 30];
N = 15;
k = 297;
d = 3;
